5 5
8 1 3 12 4 5 2 3 4 4 4 1 12 3 1 20 4 14 3 12 2 4 20 3 13 3 5 17 1 18 2 12 2 2 13 5 15 5 3 10 2 11 1 20 5 18 4 5 2 4 17 2 12
5 3 1 18 4 5 5 17 4 5 2 4 4 1 15 3 17 1 1 20 4 5 14 2 3 3 11 4 4 3 1 12 4 10 2 13
4 4 4 8 2 10 3 17 5 17 2 5 3 1 19 4 1 20 4 7 3 17 2 8 1 3 19
4 3 2 13 4 5 3 16 5 5 8 2 11 4 8 1 2 3 3 4 2 15 1 4 4 8 3 8 2 1 11 2 7
8 1 5 10 1 4 3 5 5 11 4 10 3 2 1 5 2 13 4 4 6 1 12 2 13 5 11 1 4 9 3 3 16 2 12 1 20 5 2 12 3 6 1 20 4 7 5 11 2 4 15 2 13